image0
1.0
       12.2531595230         0.0000000000         0.0000000000
        0.0000000000        10.6115484238         0.0000000000
        0.0000000000         0.0000000000        17.1177005768
   Rh   Cu    O
   48   48   96
Direct
     0.000000000         0.000000000         0.500000000
     0.000000000         0.500000000         0.500000000
     0.250000000         0.000000000         0.500000000
     0.250000000         0.500000000         0.500000000
     0.500000000         0.000000000         0.500000000
     0.500000000         0.500000000         0.500000000
     0.750000019         0.000000000         0.500000000
     0.750000019         0.500000000         0.500000000
     0.125000000         0.250000000         0.500000000
     0.125000000         0.749999978         0.500000000
     0.375000010         0.250000000         0.500000000
     0.375000010         0.749999978         0.500000000
     0.624999990         0.250000000         0.500000000
     0.624999990         0.749999978         0.500000000
     0.875000010         0.250000000         0.500000000
     0.875000010         0.749999978         0.500000000
     0.125000000         0.416664982         0.832809968
     0.125000000         0.916664982         0.832809968
     0.375000010         0.416664982         0.832809968
     0.375000010         0.916664982         0.832809968
     0.624999990         0.416664982         0.832809968
     0.624999990         0.916664982         0.832809968
     0.875000010         0.416664982         0.832809968
     0.875000010         0.916664982         0.832809968
     0.000000000         0.166664959         0.832809968
    -0.000000000         0.666664959         0.832809968
     0.250000000         0.166664959         0.832809968
     0.250000000         0.666664959         0.832809968
     0.500000000         0.166664959         0.832809968
     0.500000000         0.666664959         0.832809968
     0.750000019         0.166664959         0.832809968
     0.750000019         0.666664959         0.832809968
     0.125000000         0.083335007         0.167190004
     0.125000000         0.583334973         0.167190004
     0.375000010         0.083335007         0.167190004
     0.375000010         0.583334973         0.167190004
     0.624999990         0.083335007         0.167190004
     0.624999990         0.583334973         0.167190004
     0.875000010         0.083335007         0.167190004
     0.875000010         0.583334973         0.167190004
    -0.000000000         0.333335018         0.167190004
    -0.000000000         0.833335086         0.167190004
     0.250000000         0.333335018         0.167190004
     0.250000000         0.833335086         0.167190004
     0.500000000         0.333335018         0.167190004
     0.500000000         0.833335086         0.167190004
     0.750000019         0.333335018         0.167190004
     0.750000019         0.833335086         0.167190004
     0.000000000         0.000000000         0.000000000
    -0.000000000         0.500000000         0.000000000
     0.250000000         0.000000000         0.000000000
     0.250000000         0.500000000         0.000000000
     0.500000000         0.000000000         0.000000000
     0.500000000         0.500000000         0.000000000
     0.750000019         0.000000000         0.000000000
     0.750000019         0.500000000         0.000000000
     0.125000000         0.250000000         0.000000000
     0.125000000         0.749999978         0.000000000
     0.375000010         0.250000000         0.000000000
     0.375000010         0.749999978         0.000000000
     0.624999990         0.250000000         0.000000000
     0.624999990         0.749999978         0.000000000
     0.875000010         0.250000000         0.000000000
     0.875000010         0.749999978         0.000000000
     0.125000000         0.416664982         0.334960007
     0.125000000         0.916664982         0.334960007
     0.375000010         0.416664982         0.334960007
     0.375000010         0.916664982         0.334960007
     0.624999990         0.416664982         0.334960007
     0.624999990         0.916664982         0.334960007
     0.875000010         0.416664982         0.334960007
     0.875000010         0.916664982         0.334960007
    -0.000000000         0.166664959         0.334960007
     0.000000000         0.666664959         0.334960007
     0.250000000         0.166664959         0.334960007
     0.250000000         0.666664959         0.334960007
     0.500000000         0.166664959         0.334960007
     0.500000000         0.666664959         0.334960007
     0.750000019         0.166664959         0.334960007
     0.750000019         0.666664959         0.334960007
     0.125000000         0.083335007         0.665040021
     0.125000000         0.583334973         0.665040021
     0.375000010         0.083335007         0.665040021
     0.375000010         0.583334973         0.665040021
     0.624999990         0.083335007         0.665040021
     0.624999990         0.583334973         0.665040021
     0.875000010         0.083335007         0.665040021
     0.875000010         0.583334973         0.665040021
     0.000000000         0.333335018         0.665040021
     0.000000000         0.833335086         0.665040021
     0.250000000         0.333335018         0.665040021
     0.250000000         0.833335086         0.665040021
     0.500000000         0.333335018         0.665040021
     0.500000000         0.833335086         0.665040021
     0.750000019         0.333335018         0.665040021
     0.750000019         0.833335086         0.665040021
     0.000000000         0.000000000         0.107029996
     0.000000000         0.500000000         0.107029996
     0.250000000         0.000000000         0.107029996
     0.250000000         0.500000000         0.107029996
     0.500000000         0.000000000         0.107029996
     0.500000000         0.500000000         0.107029996
     0.750000019         0.000000000         0.107029996
     0.750000019         0.500000000         0.107029996
     0.125000000         0.250000000         0.107029996
     0.125000000         0.749999978         0.107029996
     0.375000010         0.250000000         0.107029996
     0.375000010         0.749999978         0.107029996
     0.624999990         0.250000000         0.107029996
     0.624999990         0.749999978         0.107029996
     0.875000010         0.250000000         0.107029996
     0.875000010         0.749999978         0.107029996
    -0.000000000        -0.000000000         0.892970053
     0.000000000         0.500000000         0.892970053
     0.250000000        -0.000000000         0.892970053
     0.250000000         0.500000000         0.892970053
     0.500000000        -0.000000000         0.892970053
     0.500000000         0.500000000         0.892970053
     0.750000019        -0.000000000         0.892970053
     0.750000019         0.500000000         0.892970053
     0.125000000         0.250000000         0.892970053
     0.125000000         0.749999978         0.892970053
     0.375000010         0.250000000         0.892970053
     0.375000010         0.749999978         0.892970053
     0.624999990         0.250000000         0.892970053
     0.624999990         0.749999978         0.892970053
     0.875000010         0.250000000         0.892970053
     0.875000010         0.749999978         0.892970053
     0.125000000         0.416664982         0.440800013
     0.125000000         0.916664982         0.440800013
     0.375000010         0.416664982         0.440800013
     0.375000010         0.916664982         0.440800013
     0.624999990         0.416664982         0.440800013
     0.624999990         0.916664982         0.440800013
     0.875000010         0.416664982         0.440800013
     0.875000010         0.916664982         0.440800013
     0.000000000         0.166664959         0.440800013
     0.000000000         0.666664959         0.440800013
     0.250000000         0.166664959         0.440800013
     0.250000000         0.666664959         0.440800013
     0.500000000         0.166664959         0.440800013
     0.500000000         0.666664959         0.440800013
     0.750000019         0.166664959         0.440800013
     0.750000019         0.666664959         0.440800013
     0.125000000         0.416664982         0.227240001
     0.125000000         0.916664982         0.227240001
     0.375000010         0.416664982         0.227240001
     0.375000010         0.916664982         0.227240001
     0.624999990         0.416664982         0.227240001
     0.624999990         0.916664982         0.227240001
     0.875000010         0.416664982         0.227240001
     0.875000010         0.916664982         0.227240001
     0.000000000         0.166664959         0.227240001
     0.000000000         0.666664959         0.227240001
     0.250000000         0.166664959         0.227240001
     0.250000000         0.666664959         0.227240001
     0.500000000         0.166664959         0.227240001
     0.500000000         0.666664959         0.227240001
     0.750000019         0.166664959         0.227240001
     0.750000019         0.666664959         0.227240001
     0.125000000         0.083335007         0.772759971
     0.125000000         0.583334973         0.772759971
     0.375000010         0.083335007         0.772759971
     0.375000010         0.583334973         0.772759971
     0.624999990         0.083335007         0.772759971
     0.624999990         0.583334973         0.772759971
     0.875000010         0.083335007         0.772759971
     0.875000010         0.583334973         0.772759971
     0.000000000         0.333335018         0.772759971
    -0.000000000         0.833335086         0.772759971
     0.250000000         0.333335018         0.772759971
     0.250000000         0.833335086         0.772759971
     0.500000000         0.333335018         0.772759971
     0.500000000         0.833335086         0.772759971
     0.750000019         0.333335018         0.772759971
     0.750000019         0.833335086         0.772759971
     0.125000000         0.083335007         0.559199987
     0.125000000         0.583334973         0.559199987
     0.375000010         0.083335007         0.559199987
     0.375000010         0.583334973         0.559199987
     0.624999990         0.083335007         0.559199987
     0.624999990         0.583334973         0.559199987
     0.875000010         0.083335007         0.559199987
     0.875000010         0.583334973         0.559199987
     0.000000000         0.333335018         0.559199987
     0.000000000         0.833335086         0.559199987
     0.250000000         0.333335018         0.559199987
     0.250000000         0.833335086         0.559199987
     0.500000000         0.333335018         0.559199987
     0.500000000         0.833335086         0.559199987
     0.750000019         0.333335018         0.559199987
     0.750000019         0.833335086         0.559199987
