&CONTROL
   calculation      = 'relax'
   verbosity        = 'low'
   restart_mode     = 'from_scratch'
   wf_collect       = .true.
   nstep            = 400
   tprnfor          = .true.
   etot_conv_thr    = 0.001
   forc_conv_thr    = 0.01
   disk_io          = 'low'
   pseudo_dir       = '/home01/x1837a02/program/pp_oncv/'
/
&SYSTEM
   tot_charge       = 0.0
   ecutwfc          = 80.0
   ecutrho          = 320.0
   nosym            = .true.
   occupations      = 'smearing'
   smearing         = 'mv'
   nspin            = 1
   input_dft        = 'scan'
   esm_bc           = 'pbc'
   ntyp             = 3
   nat              = 191
   ibrav            = 0
/
&ELECTRONS
   electron_maxstep = 800
   conv_thr         = 0.0001
   mixing_mode      = 'plain'
   mixing_beta      = 0.7
   diagonalization  = 'david'
   startingwfc      = 'atomic+random'
/
&IONS
   ion_dynamics     = 'bfgs'
   pot_extrapolation = 'atomic'
   wfc_extrapolation = 'none'
/
&CELL
/

ATOMIC_SPECIES
Rh 102.9055 Rh_ONCV_PBE-1.2.upf
Cu 63.546 Cu_ONCV_PBE-1.2.upf
O 15.999 O_ONCV_PBE-1.2.upf

K_POINTS gamma

CELL_PARAMETERS angstrom
12.25315952300000 0.00000000000000 0.00000000000000
0.00000000000000 10.61154842380000 0.00000000000000
0.00000000000000 0.00000000000000 17.11770057680000

ATOMIC_POSITIONS angstrom
Rh 0.0000000000 0.0000000000 8.5588502884 
Rh 0.0000000000 5.3057742119 8.5588502884 
Rh 3.0632898808 0.0000000000 8.5588502884 
Rh 3.0632898808 5.3057742119 8.5588502884 
Rh 6.1265797615 0.0000000000 8.5588502884 
Rh 6.1265797615 5.3057742119 8.5588502884 
Rh 9.1898698751 0.0000000000 8.5588502884 
Rh 9.1898698751 5.3057742119 8.5588502884 
Rh 1.5316449404 2.6528871060 8.5588502884 
Rh 1.5316449404 7.9586610844 8.5588502884 
Rh 4.5949349437 2.6528871060 8.5588502884 
Rh 4.5949349437 7.9586610844 8.5588502884 
Rh 7.6582245793 2.6528871060 8.5588502884 
Rh 7.6582245793 7.9586610844 8.5588502884 
Rh 10.7215147052 2.6528871060 8.5588502884 
Rh 10.7215147052 7.9586610844 8.5588502884 
Rh 1.5316449404 4.4214606330 14.2557916696 
Rh 1.5316449404 9.7272348449 14.2557916696 
Rh 4.5949349437 4.4214606330 14.2557916696 
Rh 4.5949349437 9.7272348449 14.2557916696 
Rh 7.6582245793 4.4214606330 14.2557916696 
Rh 7.6582245793 9.7272348449 14.2557916696 
Rh 10.7215147052 4.4214606330 14.2557916696 
Rh 10.7215147052 9.7272348449 14.2557916696 
Rh 0.0000000000 1.7685732830 14.2557916696 
Rh 0.0000000000 7.0743474949 14.2557916696 
Rh 3.0632898808 1.7685732830 14.2557916696 
Rh 3.0632898808 7.0743474949 14.2557916696 
Rh 6.1265797615 1.7685732830 14.2557916696 
Rh 6.1265797615 7.0743474949 14.2557916696 
Rh 9.1898698751 1.7685732830 14.2557916696 
Rh 9.1898698751 7.0743474949 14.2557916696 
Rh 1.5316449404 0.8843134622 2.8619084279 
Rh 1.5316449404 6.1900873133 2.8619084279 
Rh 4.5949349437 0.8843134622 2.8619084279 
Rh 4.5949349437 6.1900873133 2.8619084279 
Rh 7.6582245793 0.8843134622 2.8619084279 
Rh 7.6582245793 6.1900873133 2.8619084279 
Rh 10.7215147052 0.8843134622 2.8619084279 
Rh 10.7215147052 6.1900873133 2.8619084279 
Rh 0.0000000000 3.5372006849 2.8619084279 
Rh 0.0000000000 8.8429756183 2.8619084279 
Rh 3.0632898808 3.5372006849 2.8619084279 
Rh 3.0632898808 8.8429756183 2.8619084279 
Rh 6.1265797615 3.5372006849 2.8619084279 
Rh 6.1265797615 8.8429756183 2.8619084279 
Rh 9.1898698751 3.5372006849 2.8619084279 
Rh 9.1898698751 8.8429756183 2.8619084279 
Cu 0.0000000000 0.0000000000 0.0000000000 
Cu 0.0000000000 5.3057742119 0.0000000000 
Cu 3.0632898808 0.0000000000 0.0000000000 
Cu 3.0632898808 5.3057742119 0.0000000000 
Cu 6.1265797615 0.0000000000 0.0000000000 
Cu 6.1265797615 5.3057742119 0.0000000000 
Cu 9.1898698751 0.0000000000 0.0000000000 
Cu 9.1898698751 5.3057742119 0.0000000000 
Cu 1.5316449404 2.6528871060 0.0000000000 
Cu 1.5316449404 7.9586610844 0.0000000000 
Cu 4.5949349437 2.6528871060 0.0000000000 
Cu 4.5949349437 7.9586610844 0.0000000000 
Cu 7.6582245793 2.6528871060 0.0000000000 
Cu 7.6582245793 7.9586610844 0.0000000000 
Cu 10.7215147052 2.6528871060 0.0000000000 
Cu 10.7215147052 7.9586610844 0.0000000000 
Cu 1.5316449404 4.4214606330 5.7337451050 
Cu 1.5316449404 9.7272348449 5.7337451050 
Cu 4.5949349437 4.4214606330 5.7337451050 
Cu 4.5949349437 9.7272348449 5.7337451050 
Cu 7.6582245793 4.4214606330 5.7337451050 
Cu 7.6582245793 9.7272348449 5.7337451050 
Cu 10.7215147052 4.4214606330 5.7337451050 
Cu 10.7215147052 9.7272348449 5.7337451050 
Cu 0.0000000000 1.7685732830 5.7337451050 
Cu 0.0000000000 7.0743474949 5.7337451050 
Cu 3.0632898808 1.7685732830 5.7337451050 
Cu 3.0632898808 7.0743474949 5.7337451050 
Cu 6.1265797615 1.7685732830 5.7337451050 
Cu 9.1898698751 1.7685732830 5.7337451050 
Cu 9.1898698751 7.0743474949 5.7337451050 
Cu 1.5316449404 0.8843134622 11.3839559511 
Cu 1.5316449404 6.1900873133 11.3839559511 
Cu 4.5949349437 0.8843134622 11.3839559511 
Cu 4.5949349437 6.1900873133 11.3839559511 
Cu 7.6582245793 0.8843134622 11.3839559511 
Cu 7.6582245793 6.1900873133 11.3839559511 
Cu 10.7215147052 0.8843134622 11.3839559511 
Cu 10.7215147052 6.1900873133 11.3839559511 
Cu 0.0000000000 3.5372006849 11.3839559511 
Cu 0.0000000000 8.8429756183 11.3839559511 
Cu 3.0632898808 3.5372006849 11.3839559511 
Cu 3.0632898808 8.8429756183 11.3839559511 
Cu 6.1265797615 3.5372006849 11.3839559511 
Cu 6.1265797615 8.8429756183 11.3839559511 
Cu 9.1898698751 3.5372006849 11.3839559511 
Cu 9.1898698751 8.8429756183 11.3839559511 
O 0.0000000000 0.0000000000 1.8321074243 
O 0.0000000000 5.3057742119 1.8321074243 
O 3.0632898808 0.0000000000 1.8321074243 
O 3.0632898808 5.3057742119 1.8321074243 
O 6.1265797615 0.0000000000 1.8321074243 
O 6.1265797615 5.3057742119 1.8321074243 
O 9.1898698751 0.0000000000 1.8321074243 
O 9.1898698751 5.3057742119 1.8321074243 
O 1.5316449404 2.6528871060 1.8321074243 
O 1.5316449404 7.9586610844 1.8321074243 
O 4.5949349437 2.6528871060 1.8321074243 
O 4.5949349437 7.9586610844 1.8321074243 
O 7.6582245793 2.6528871060 1.8321074243 
O 7.6582245793 7.9586610844 1.8321074243 
O 10.7215147052 2.6528871060 1.8321074243 
O 10.7215147052 7.9586610844 1.8321074243 
O 0.0000000000 0.0000000000 15.2855939913 
O 0.0000000000 5.3057742119 15.2855939913 
O 3.0632898808 0.0000000000 15.2855939913 
O 3.0632898808 5.3057742119 15.2855939913 
O 6.1265797615 0.0000000000 15.2855939913 
O 6.1265797615 5.3057742119 15.2855939913 
O 9.1898698751 0.0000000000 15.2855939913 
O 9.1898698751 5.3057742119 15.2855939913 
O 1.5316449404 2.6528871060 15.2855939913 
O 1.5316449404 7.9586610844 15.2855939913 
O 4.5949349437 2.6528871060 15.2855939913 
O 4.5949349437 7.9586610844 15.2855939913 
O 7.6582245793 2.6528871060 15.2855939913 
O 7.6582245793 7.9586610844 15.2855939913 
O 10.7215147052 2.6528871060 15.2855939913 
O 10.7215147052 7.9586610844 15.2855939913 
O 1.5316449404 4.4214606330 7.5454826368 
O 1.5316449404 9.7272348449 7.5454826368 
O 4.5949349437 4.4214606330 7.5454826368 
O 4.5949349437 9.7272348449 7.5454826368 
O 7.6582245793 4.4214606330 7.5454826368 
O 7.6582245793 9.7272348449 7.5454826368 
O 10.7215147052 4.4214606330 7.5454826368 
O 10.7215147052 9.7272348449 7.5454826368 
O 0.0000000000 1.7685732830 7.5454826368 
O 0.0000000000 7.0743474949 7.5454826368 
O 3.0632898808 1.7685732830 7.5454826368 
O 3.0632898808 7.0743474949 7.5454826368 
O 6.1265797615 1.7685732830 7.5454826368 
O 6.1265797615 7.0743474949 7.5454826368 
O 9.1898698751 1.7685732830 7.5454826368 
O 9.1898698751 7.0743474949 7.5454826368 
O 1.5316449404 4.4214606330 3.8898262962 
O 1.5316449404 9.7272348449 3.8898262962 
O 4.5949349437 4.4214606330 3.8898262962 
O 4.5949349437 9.7272348449 3.8898262962 
O 7.6582245793 4.4214606330 3.8898262962 
O 7.6582245793 9.7272348449 3.8898262962 
O 10.7215147052 4.4214606330 3.8898262962 
O 10.7215147052 9.7272348449 3.8898262962 
O 0.0000000000 1.7685732830 3.8898262962 
O 0.0000000000 7.0743474949 3.8898262962 
O 3.0632898808 1.7685732830 3.8898262962 
O 3.0632898808 7.0743474949 3.8898262962 
O 6.1265797615 1.7685732830 3.8898262962 
O 6.1265797615 7.0743474949 3.8898262962 
O 9.1898698751 1.7685732830 3.8898262962 
O 9.1898698751 7.0743474949 3.8898262962 
O 1.5316449404 0.8843134622 13.2278738013 
O 1.5316449404 6.1900873133 13.2278738013 
O 4.5949349437 0.8843134622 13.2278738013 
O 4.5949349437 6.1900873133 13.2278738013 
O 7.6582245793 0.8843134622 13.2278738013 
O 7.6582245793 6.1900873133 13.2278738013 
O 10.7215147052 0.8843134622 13.2278738013 
O 10.7215147052 6.1900873133 13.2278738013 
O 0.0000000000 3.5372006849 13.2278738013 
O 0.0000000000 8.8429756183 13.2278738013 
O 3.0632898808 3.5372006849 13.2278738013 
O 3.0632898808 8.8429756183 13.2278738013 
O 6.1265797615 3.5372006849 13.2278738013 
O 6.1265797615 8.8429756183 13.2278738013 
O 9.1898698751 3.5372006849 13.2278738013 
O 9.1898698751 8.8429756183 13.2278738013 
O 1.5316449404 0.8843134622 9.5722179400 
O 1.5316449404 6.1900873133 9.5722179400 
O 4.5949349437 0.8843134622 9.5722179400 
O 4.5949349437 6.1900873133 9.5722179400 
O 7.6582245793 0.8843134622 9.5722179400 
O 7.6582245793 6.1900873133 9.5722179400 
O 10.7215147052 0.8843134622 9.5722179400 
O 10.7215147052 6.1900873133 9.5722179400 
O 0.0000000000 3.5372006849 9.5722179400 
O 0.0000000000 8.8429756183 9.5722179400 
O 3.0632898808 3.5372006849 9.5722179400 
O 3.0632898808 8.8429756183 9.5722179400 
O 6.1265797615 3.5372006849 9.5722179400 
O 6.1265797615 8.8429756183 9.5722179400 
O 9.1898698751 3.5372006849 9.5722179400 
O 9.1898698751 8.8429756183 9.5722179400 

